
******************************************************************************
This program contains Ipopt, a library for large-scale nonlinear optimization.
 Ipopt is released as open source code under the Eclipse Public License (EPL).
         For more information visit https://github.com/coin-or/Ipopt
******************************************************************************

This is Ipopt version 3.14.19, running with linear solver MUMPS 5.8.1.

Number of nonzeros in equality constraint Jacobian...:     4389
Number of nonzeros in inequality constraint Jacobian.:        0
Number of nonzeros in Lagrangian Hessian.............:     1050

Total number of variables............................:     1287
                     variables with only lower bounds:        0
                variables with lower and upper bounds:      457
                     variables with only upper bounds:        0
Total number of equality constraints.................:     1274
Total number of inequality constraints...............:        0
        inequality constraints with only lower bounds:        0
   inequality constraints with lower and upper bounds:        0
        inequality constraints with only upper bounds:        0

iter    objective    inf_pr   inf_du lg(mu)  ||d||  lg(rg) alpha_du alpha_pr  ls
   0  9.8551170e+00 9.67e+01 5.36e-04  -1.0 0.00e+00    -  0.00e+00 0.00e+00   0
   1  9.8611420e+00 1.52e+01 3.45e+01  -1.0 9.61e+01    -  2.33e-02 8.43e-01h  1
   2  9.8619591e+00 5.37e+00 1.23e+01  -1.0 1.46e+01    -  8.66e-01 6.47e-01f  1
   3  9.8687415e+00 5.18e-01 2.29e+00  -1.0 3.26e+00    -  7.28e-01 9.04e-01f  1
   4  9.8755944e+00 3.79e-01 1.56e-01  -1.0 1.77e+00    -  9.93e-01 9.58e-01h  1
   5  9.8623485e+00 6.74e-01 2.80e-03  -1.7 1.13e+00    -  1.00e+00 1.00e+00h  1
   6  9.8635483e+00 6.73e-02 2.00e-04  -1.7 8.65e-01    -  1.00e+00 1.00e+00h  1
   7  9.8630331e+00 9.17e-02 1.27e-04  -2.5 6.81e-01    -  1.00e+00 1.00e+00h  1
   8  9.8629199e+00 4.03e-04 4.97e-07  -2.5 1.27e-01    -  1.00e+00 1.00e+00h  1
   9  9.8625215e+00 3.11e-03 2.38e-02  -3.8 1.54e-01    -  7.94e-01 1.00e+00h  1
iter    objective    inf_pr   inf_du lg(mu)  ||d||  lg(rg) alpha_du alpha_pr  ls
  10  9.8553567e+00 1.60e-03 7.23e-03  -3.8 2.99e+00    -  3.64e-01 1.00e+00h  1
  11  9.8519690e+00 4.21e-04 5.59e-04  -3.8 1.63e+00    -  1.00e+00 1.00e+00h  1
  12  9.8482224e+00 5.34e-04 7.19e-04  -5.7 1.85e+00    -  7.72e-01 9.80e-01h  1
  13  9.8482009e+00 3.68e-04 6.35e-02  -5.7 6.09e-02    -  1.00e+00 3.10e-01h  1
  14  9.8482341e+00 1.92e-05 5.12e-03  -5.7 4.01e-03    -  1.00e+00 9.48e-01h  1
  15  9.8482380e+00 2.78e-10 4.50e-10  -5.7 8.55e-04    -  1.00e+00 1.00e+00f  1
  16  9.8482339e+00 6.57e-10 1.94e-03  -8.6 2.25e-03    -  1.00e+00 8.88e-01h  1
  17  9.8482338e+00 7.72e-12 1.14e-13  -8.6 1.72e-05    -  1.00e+00 1.00e+00f  1

Number of Iterations....: 17

                                   (scaled)                 (unscaled)
Objective...............:   9.8482338476048152e+00    9.8482338476048152e+00
Dual infeasibility......:   1.1360357099476914e-13    1.1360357099476914e-13
Constraint violation....:   7.7156059319409995e-12    7.7156059319409995e-12
Variable bound violation:   0.0000000000000000e+00    0.0000000000000000e+00
Complementarity.........:   2.5092430257628430e-09    2.5092430257628430e-09
Overall NLP error.......:   2.5092430257628430e-09    2.5092430257628430e-09


Number of objective function evaluations             = 18
Number of objective gradient evaluations             = 18
Number of equality constraint evaluations            = 18
Number of inequality constraint evaluations          = 0
Number of equality constraint Jacobian evaluations   = 18
Number of inequality constraint Jacobian evaluations = 0
Number of Lagrangian Hessian evaluations             = 17
Total seconds in IPOPT                               = 0.094

EXIT: Optimal Solution Found.
